<number of tasks>
50

<cycle time>
1000

<order strength>
0.896


<task times>
1 439
2 154
3 149
4 442
5 384
6 28
7 292
8 463
9 24
10 297
11 240
12 70
13 211
14 534
15 59
16 507
17 484
18 155
19 161
20 122
21 515
22 129
23 171
24 458
25 139
26 122
27 89
28 73
29 68
30 318
31 231
32 237
33 149
34 212
35 206
36 453
37 115
38 379
39 362
40 270
41 411
42 231
43 96
44 106
45 221
46 426
47 256
48 96
49 215
50 87

<precedence relations>
1,3
1,5
2,3
2,4
2,5
3,6
3,7
4,6
4,7
4,8
5,7
5,8
6,9
6,10
6,11
7,9
7,10
7,11
8,9
8,10
8,11
9,12
9,13
9,14
9,15
10,12
10,13
10,14
10,15
11,12
11,13
11,14
11,15
12,16
12,17
12,18
13,16
13,17
13,18
14,16
14,17
14,18
15,16
15,17
15,18
16,19
16,20
17,19
17,20
18,19
18,20
19,21
19,22
19,23
20,21
20,22
20,23
21,24
21,25
21,26
21,27
22,24
22,25
22,26
22,27
23,24
24,28
24,29
24,30
25,28
25,29
25,30
26,28
26,29
26,30
27,28
28,33
29,31
29,32
29,34
30,34
30,38
30,39
32,35
33,35
33,36
34,40
35,41
35,44
36,37
36,38
36,39
37,40
38,41
39,40
40,41
40,42
40,43
40,44
41,45
42,45
43,48
44,49
44,50
45,46
45,47
45,48
46,49
47,50

<end>
